PARAMETER_FILE = even/LKH_uncomplete_graph/x5/de/par/random115.par
PROBLEM_FILE = even/LKH_uncomplete_graph/x5/de/mat/random115.tsp
Successes/Runs = 0/10
Cost.min = 810, Cost.avg = 810.00, Cost.max = 810
Gap.min = 0.0000%, Gap.avg = 0.0000%, Gap.max = 0.0000%
Trials.min = 1000, Trials.avg = 1000.0, Trials.max = 1000
Time.min = 0.41 sec., Time.avg = 0.47 sec., Time.max = 0.57 sec.
Time.total = 4.76 sec.
请按任意键继续. . . 
